(declare-const X String)
; Host\x3A\s+www\x2Ewebfringe\x2Ecom\d+Version\d\x2ElSpywww\x2Elookquick\x2EcomSubject\x3A\x3a\x29\r\n
(assert (str.in.re X (re.++ (str.to.re "Host:") (re.+ (re.union (str.to.re " ") (str.to.re "\x09") (str.to.re "\x0a") (str.to.re "\x0c") (str.to.re "\x0d"))) (str.to.re "www.webfringe.com") (re.+ (re.range "0" "9")) (str.to.re "Version") (re.range "0" "9") (str.to.re ".lSpywww.lookquick.comSubject::)\x0d\x0a\x13\x0a"))))
; User-Agent\x3aetbuviaebe\x2feqv\.bvv
(assert (str.in.re X (str.to.re "User-Agent:etbuviaebe/eqv.bvv\x0a")))
; /filename=[^\n]*\x2enab/i
(assert (str.in.re X (re.++ (str.to.re "/filename=") (re.* (re.comp (str.to.re "\x0a"))) (str.to.re ".nab/i\x0a"))))
; /filename=[^\n]*\x2epor/i
(assert (not (str.in.re X (re.++ (str.to.re "/filename=") (re.* (re.comp (str.to.re "\x0a"))) (str.to.re ".por/i\x0a")))))
; ^[a-zA-Z]+(\.[a-zA-Z]+)+$
(assert (str.in.re X (re.++ (re.+ (re.union (re.range "a" "z") (re.range "A" "Z"))) (re.+ (re.++ (str.to.re ".") (re.+ (re.union (re.range "a" "z") (re.range "A" "Z"))))) (str.to.re "\x0a"))))
(check-sat)
